NAME: tsp35_14
COMMENT: 35-tsp problem (Padberg/Rinaldi)
TYPE: TSP
DIMENSION: 35
EDGE_WEIGHT_TYPE : EUC_2D
NODE_COORD_SECTION
1 22 13
2 36 28
3 29 35
4 35 2
5 20 29
6 32 22
7 0 23
8 15 28
9 8 5
10 30 27
11 17 29
12 29 36
13 33 7
14 39 4
15 5 40
16 19 11
17 37 12
18 26 19
19 29 14
20 10 33
21 9 21
22 32 24
23 9 32
24 36 25
25 19 34
26 6 16
27 28 24
28 24 6
29 29 23
30 4 35
31 8 14
32 33 18
33 18 32
34 20 21
35 30 29
